1982-06-12
1982-06-13
1982-06-14
1982-06-15
1982-06-16
1982-06-17
1982-06-18
1982-06-19
1982-06-20
1982-06-21
1982-06-22
1982-06-23
1982-06-24
1982-06-25
1982-06-26
1982-06-27
1982-06-28
1982-06-29
1982-06-30
1982-07-07
1982-07-08
1982-07-09
1982-07-10
1982-07-11
1982-07-12
1982-07-13
1983-01-31
1983-02-01
1983-02-02
1983-02-03
1983-04-24
1983-04-25
1983-04-26
1983-04-27
1983-04-28
1986-10-01
1986-10-02
1986-10-03
1986-10-04
1986-10-05
1986-10-06
1986-10-07
1986-10-08
1986-10-09
1986-10-10
1986-10-15
1986-10-16
1986-10-17
1986-10-18
1986-10-19
1986-10-20
1987-05-08
1987-05-09
1987-06-24
1987-06-25
1987-06-26
1987-06-27
1987-06-28
1987-06-29
1987-06-30
1987-07-01
1987-07-02
1987-07-03
1987-07-04
1987-07-05
1987-07-16
1991-05-23
1991-05-24
1991-05-25
1991-05-26
1991-05-27
1991-05-28
1991-05-29
1991-05-30
1991-05-31
1991-06-01
1991-06-02
1991-06-03
1991-06-04
1991-06-05
1991-06-06
1991-06-07
1991-06-08
1991-06-09
1991-06-10
1991-06-12
1991-06-13
1991-06-14
1991-06-15
1991-07-01
1991-07-02
1991-07-03
1991-07-04
1991-07-05
1991-08-23
1991-08-24
1992-02-12
1992-02-13
1992-02-14
1992-02-15
1992-02-16
1992-02-17
1992-02-18
1992-02-19
1992-02-21
1992-03-10
1992-04-14
1992-04-15
1992-04-21
1992-04-23
1992-04-24
1992-04-25
1992-04-26
1992-04-27
1992-04-28
1992-04-30
1992-05-08
1992-05-09
1993-06-22
1993-06-23
1993-06-24
1997-05-26
1997-05-27
1997-05-28
1997-05-29
1997-05-30
1997-05-31
1997-06-01
1997-06-02
1997-06-03
1997-06-04
1997-06-05
1997-06-06
1997-06-07
1997-06-08
1997-06-09
1997-06-11
1997-06-12
1997-06-13
1997-06-14
1997-06-15
1997-06-16
1997-06-17
1997-06-18
1997-06-19
1997-06-20
1997-06-21
1997-06-22
1997-06-23
1997-06-24
1997-09-11
1997-09-12
1997-09-13
1997-09-14
1997-09-15
1997-09-16
1997-09-17
1997-09-18
1997-09-19
1997-09-20
1997-09-21
1997-09-22
1997-09-23
1997-09-24
1997-09-25
1997-09-26
1997-09-27
1997-09-28
1997-09-29
1997-09-30
1998-02-01
1998-02-02
1998-02-03
1998-02-04
1998-02-05
1998-02-06
1998-02-07
1998-02-08
1998-02-09
1998-02-10
1998-02-11
1998-02-12
1998-02-13
1998-05-03
1998-05-04
1998-05-05
1998-05-06
1998-05-07
1998-05-08
1998-05-09
1998-05-10
1998-05-11
1998-05-12
1998-05-13
1998-05-14
1998-05-15
1998-05-16
1998-05-17
1998-05-18
2002-06-01
2002-06-02
2002-06-03
2002-06-04
2002-06-05
2002-06-06
2002-06-07
2002-06-08
2002-07-22
2002-07-23
2002-07-24
2002-07-25
2002-07-26
2002-07-27
2002-07-28
2002-07-29
2002-07-30
2002-07-31
2004-11-27
2004-11-28
2004-11-29
2004-11-30
2004-12-01
2004-12-02
2004-12-03
2009-06-29
2009-06-30
2009-07-01
2009-07-02
2009-07-03
2009-07-04
2009-07-05
2009-07-06
2009-07-07
2009-07-08
2009-07-09
2009-07-10
2009-07-11
2009-07-12
2009-08-11
2009-08-12
2009-08-13
2009-08-14
2009-08-15
2009-08-16
2009-08-17
2009-08-18
2009-08-19
2009-08-20
2009-08-21
2009-08-22
2009-08-24
2009-08-25
2009-08-26
2009-08-27
2009-08-28
2009-08-29
2009-08-30
2009-08-31
2009-09-01
2009-09-02
2009-09-03
2009-10-31
2009-11-01
2009-11-02
2009-11-03
2010-01-23
2010-01-24
2010-01-25
2010-01-26
2010-01-27
2010-01-28
2010-01-29
2010-01-30
2010-01-31
2012-08-15
2012-08-16
2012-08-17
2012-08-18
2012-08-19
2012-08-20
2012-08-21
2012-08-22
2012-08-23
